
Gurobi 6.5.2 (linux64) logging started Wed Mar 15 13:04:44 2017


Gurobi 6.5.2 (linux64) logging started Wed Mar 15 13:04:44 2017

Optimize a model with 401 rows, 14130 columns and 29539 nonzeros
Coefficient statistics:
  Matrix range    [1e+00, 2e+00]
  Objective range [1e+00, 1e+02]
  Bounds range    [1e+00, 1e+00]
  RHS range       [1e+00, 1e+00]
Presolve removed 99 rows and 4 columns
Presolve time: 0.09s
Presolved: 302 rows, 14126 columns, 28779 nonzeros
Variable types: 0 continuous, 14126 integer (14126 binary)

Root relaxation: objective 1.044750e+03, 249 iterations, 0.01 seconds

    Nodes    |    Current Node    |     Objective Bounds      |     Work
 Expl Unexpl |  Obj  Depth IntInf | Incumbent    BestBd   Gap | It/Node Time

     0     0 1044.75000    0   64          - 1044.75000      -     -    0s
     0     0 1091.95833    0   41          - 1091.95833      -     -    0s
     0     0 1095.80556    0   49          - 1095.80556      -     -    0s
     0     0 1097.95833    0   70          - 1097.95833      -     -    0s
     0     0 1099.58333    0   52          - 1099.58333      -     -    0s
     0     0 1099.58333    0   59          - 1099.58333      -     -    0s
     0     0 1100.82143    0   80          - 1100.82143      -     -    0s
     0     0 1101.32143    0   80          - 1101.32143      -     -    0s
     0     0 1101.69444    0   77          - 1101.69444      -     -    0s
     0     0 1101.69444    0   82          - 1101.69444      -     -    0s
     0     0 1101.69444    0   75          - 1101.69444      -     -    0s
     0     0 1101.69444    0   75          - 1101.69444      -     -    0s
     0     2 1101.69444    0   69          - 1101.69444      -     -    1s
  1699  1647 1241.00000  323    6          - 1102.93056      -   4.1    5s
  4527  4265 1134.20000   87    9          - 1103.05556      -   5.0   10s

Cutting planes:
  Cover: 153
  MIR: 7
  Zero half: 9
  Lazy constraints: 251

Explored 4616 nodes (23714 simplex iterations) in 10.01 seconds
Thread count was 8 (of 8 available processors)

Time limit reached
Best objective -, best bound 1.104000000000e+03, gap -
